song("3mlMpmY8oZIBFc39D9zLbh", 132, 33, 39, 30, 76, 1, 6, 3, "The Long And Winding Road - Remastered 2009", "The Beatles", "Let It Be (Remastered)").
performer("The Beatles", "3mlMpmY8oZIBFc39D9zLbh").
song("6eTSBVZLp8t5lBimnpkMBZ", 115, 18, 49, 55, 84, 10, 22, 5, "Violin Concerto No. 2 in B Minor, Op. 7, MS. 48: III. Rondo à la clochette, 'La campanella'", "Niccolò Paganini;Salvatore Accardo;London Philharmonic Orchestra;Charles Dutoit", "Classical Running").
performer("Niccolò Paganini", "6eTSBVZLp8t5lBimnpkMBZ").
performer("Salvatore Accardo", "6eTSBVZLp8t5lBimnpkMBZ").
performer("London Philharmonic Orchestra", "6eTSBVZLp8t5lBimnpkMBZ").
performer("Charles Dutoit", "6eTSBVZLp8t5lBimnpkMBZ").
song("31hDmCksSnCAkn93Iaz0oq", 96, 23, 61, 62, 57, 59, 36, 3, "I Shot The Sheriff", "Sweet Little Band", "Bob Marley For Babies").
performer("Sweet Little Band", "31hDmCksSnCAkn93Iaz0oq").
song("6gpxjIUXVY3Dia44paPwG2", 113, 28, 46, 49, 63, 38, 8, 4, "Primavera porteña", "Orquesta Color Tango De Roberto Alvarez", "Tango a Pugliese Con estilo para bailar Vol. 3").
performer("Orquesta Color Tango De Roberto Alvarez", "6gpxjIUXVY3Dia44paPwG2").
song("2hOxLpHM7senwHXKx21Ow0", 95, 33, 44, 64, 41, 4, 28, 3, "Before You Use That Gun", "Eddie Noack", "Ain't the Reaping Ever Done? (1962-1976)").
performer("Eddie Noack", "2hOxLpHM7senwHXKx21Ow0").
song("3b4CT1QcTUXjxxhclNX5UT", 117, 17, 59, 67, 87, 65, 11, 4, "Divertimento No. 11 in D, K.251 \"Nannerl-Septett\": 4b. Menuetto (Tema con variazioni): Var. I", "Wolfgang Amadeus Mozart;Heinz Holliger;Hermann Baumann;Michel Gasciarrino;Henk Guldemond;Orlando Quartet", "Mozart - A Classical Dawn").
performer("Wolfgang Amadeus Mozart", "3b4CT1QcTUXjxxhclNX5UT").
performer("Heinz Holliger", "3b4CT1QcTUXjxxhclNX5UT").
performer("Hermann Baumann", "3b4CT1QcTUXjxxhclNX5UT").
performer("Michel Gasciarrino", "3b4CT1QcTUXjxxhclNX5UT").
performer("Henk Guldemond", "3b4CT1QcTUXjxxhclNX5UT").
performer("Orlando Quartet", "3b4CT1QcTUXjxxhclNX5UT").
song("007NMTR9MQrqwCmbjNSjKj", 100, 21, 52, 56, 72, 3, 12, 4, "Somebody To Love", "Sweet Little Band", "Queen For Babies").
performer("Sweet Little Band", "007NMTR9MQrqwCmbjNSjKj").
song("5k4LCR4dYBqvEXLmnHVR22", 96, 20, 52, 43, 62, 26, 25, 4, "Tango-Chaos", "Germaine Franco", "Encanto (Deutscher Original Film-Soundtrack)").
performer("Germaine Franco", "5k4LCR4dYBqvEXLmnHVR22").
song("7KWoeBqSdZHEloYKVxssfG", 89, 27, 49, 40, 72, 13, 11, 3, "In the Ghetto", "Elvis Presley", "From Elvis in Memphis").
performer("Elvis Presley", "7KWoeBqSdZHEloYKVxssfG").
song("2Ou7eEu0S9jRnEcIHFege7", 96, 19, 52, 42, 60, 57, 26, 4, "The Dysfunctional Tango", "Germaine Franco", "Encanto (Trilha Sonora Original em Português)").
performer("Germaine Franco", "2Ou7eEu0S9jRnEcIHFege7").
song("1JZsiwOh0qLNm17xoLzeCk", 114, 21, 56, 60, 75, 6, 16, 6, "Ensueños", "Sexteto Mayor", "Our Last Tango (Original Motion Picture Soundtrack)").
performer("Sexteto Mayor", "1JZsiwOh0qLNm17xoLzeCk").
song("6a79Oo6RXOx8AuD9eOlCTJ", 96, 21, 48, 57, 65, 13, 12, 3, "Wonderful Tonight", "Eric Clapton", "Slowhand 35th Anniversary").
performer("Eric Clapton", "6a79Oo6RXOx8AuD9eOlCTJ").
song("5I8ljz9WeudlOIoDBOL0dJ", 108, 21, 51, 40, 60, 6, 20, 3, "Swan Lake, Op. 20, TH.12 / Act 3: No. 21 Danse espagnole (Allegro non troppo. Tempo di bolero)", "Pyotr Ilyich Tchaikovsky;National Philharmonic Orchestra;Richard Bonynge", "Classical Running").
performer("Pyotr Ilyich Tchaikovsky", "5I8ljz9WeudlOIoDBOL0dJ").
performer("National Philharmonic Orchestra", "5I8ljz9WeudlOIoDBOL0dJ").
performer("Richard Bonynge", "5I8ljz9WeudlOIoDBOL0dJ").
song("0rQV8yyM0fjQmZjlJnIR7Y", 80, 33, 41, 63, 80, 9, 26, 10, "Lost In Between", "yaeow", "Lost In Between").
performer("yaeow", "0rQV8yyM0fjQmZjlJnIR7Y").
song("08B5lKxdTdHLQExjbFjpLS", 109, 27, 46, 44, 76, 25, 9, 4, "Los mareados", "Orquesta Color Tango De Roberto Alvarez", "Tango a Pugliese Con estilo para bailar Vol. 3").
performer("Orquesta Color Tango De Roberto Alvarez", "08B5lKxdTdHLQExjbFjpLS").
song("1S3EEpzJoqUU79zDmoTJmQ", 111, 30, 54, 55, 64, 11, 10, 5, "Don't Need No", "Punch Brothers", "Antifogmatic").
performer("Punch Brothers", "1S3EEpzJoqUU79zDmoTJmQ").
song("4oCT3q3UTCA36cA11hW9rV", 111, 34, 50, 42, 88, 4, 33, 6, "Кумушка", "Соня Тимофеева", "Цыганские народные песни").
performer("Соня Тимофеева", "4oCT3q3UTCA36cA11hW9rV").
song("2Hx6hbmAyRWiZzDOlZaIpE", 72, 20, 54, 52, 68, 14, 13, 3, "Wonderland By Night", "Floyd Cramer", "On the Rebound").
performer("Floyd Cramer", "2Hx6hbmAyRWiZzDOlZaIpE").
song("0L3t3JBQM0s7orSGUEWfE3", 105, 22, 50, 47, 87, 38, 11, 6, "Niye Çattın Kaşlarını", "Selda Bağcan", "Türkülerimiz 2 - Mehmet Emmi").
performer("Selda Bağcan", "0L3t3JBQM0s7orSGUEWfE3").
song("6CDQBADsdzJwc3qZ3OPDHH", 94, 35, 70, 56, 87, 40, 10, 4, "Almost Like Being In Love", "Red Garland;Paul Chambers;Art Taylor", "Red Garland's Piano").
performer("Red Garland", "6CDQBADsdzJwc3qZ3OPDHH").
performer("Paul Chambers", "6CDQBADsdzJwc3qZ3OPDHH").
performer("Art Taylor", "6CDQBADsdzJwc3qZ3OPDHH").
song("4faPBCv5aMcBI4scs5PAI8", 81, 17, 39, 43, 72, 51, 8, 3, "Unchained Melody", "Floyd Cramer", "What A Beautiful Day").
performer("Floyd Cramer", "4faPBCv5aMcBI4scs5PAI8").
song("0I5MZVa5UHHCtoZUpnAnnW", 109, 19, 52, 58, 62, 4, 8, 6, "Tango a Pugliese", "Orquesta Color Tango De Roberto Alvarez", "Tango a Pugliese Con estilo para bailar Vol. 3").
performer("Orquesta Color Tango De Roberto Alvarez", "0I5MZVa5UHHCtoZUpnAnnW").
song("0M0mBJKyTQoH71pcQBAkDA", 83, 23, 53, 36, 62, 3, 20, 3, "Don't You Ever Get Tired of Hurting Me", "Ray Price", "The Essential Ray Price").
performer("Ray Price", "0M0mBJKyTQoH71pcQBAkDA").
song("45b8vMqstjcI1Cybs7XDUO", 111, 22, 49, 58, 64, 27, 12, 4, "Cabulero", "Orquesta Color Tango De Roberto Alvarez", "Tango a Pugliese Con estilo para bailar Vol. 3").
performer("Orquesta Color Tango De Roberto Alvarez", "45b8vMqstjcI1Cybs7XDUO").
song("5X28P6dOXwmvWhm0z06xVa", 109, 27, 44, 50, 48, 3, 34, 3, "The Girl on Death Row", "Duane Eddy", "The Birth of a Guitar Legend").
performer("Duane Eddy", "5X28P6dOXwmvWhm0z06xVa").
song("69agFlVbPwS5RqjfB1Zkst", 78, 15, 55, 59, 86, 9, 9, 4, "Love Of My Life", "Sweet Little Band", "Queen For Babies").
performer("Sweet Little Band", "69agFlVbPwS5RqjfB1Zkst").
song("3iltRlox3jEeSKuqdW88EK", 80, 24, 74, 62, 86, 5, 11, 4, "Going Up The Country", "Canned Heat", "On The Road Again").
performer("Canned Heat", "3iltRlox3jEeSKuqdW88EK").
song("0suRnqsGZusgNltWrORAHS", 110, 25, 39, 66, 84, 17, 9, 3, "Mera Hai Tu", "Vasuda Sharma", "Mera Hai Tu").
performer("Vasuda Sharma", "0suRnqsGZusgNltWrORAHS").
song("6bGyX75xUytV0Ze8CY18UR", 92, 31, 65, 62, 67, 10, 14, 4, "Santa Claus Is Coming To Town", "Bill Evans", "Essential Christmas Cocktail Party").
performer("Bill Evans", "6bGyX75xUytV0Ze8CY18UR").
song("3sh185R9tZCr0ZyIVrINI7", 96, 19, 52, 42, 60, 57, 26, 4, "Złowieszcze Tango", "Germaine Franco", "Nasze Magiczne Encanto (Muzyka z filmu)").
performer("Germaine Franco", "3sh185R9tZCr0ZyIVrINI7").
song("285dnGIhPPupSq4J9HjduW", 82, 22, 74, 59, 82, 3, 14, 3, "Never Again (Will I Knock On Your Door)", "Hank Williams", "The Original Singles Collection . . . Plus").
performer("Hank Williams", "285dnGIhPPupSq4J9HjduW").
song("00NZcRjpixxnyUwltRhj7V", 85, 26, 43, 55, 78, 6, 18, 3, "Funny How Time Slips Away", "Ray Price", "Golden Hits").
performer("Ray Price", "00NZcRjpixxnyUwltRhj7V").
song("5zb7npjQqoJ7Kcpq4yD9qn", 109, 33, 49, 67, 61, 20, 8, 6, "You Want It Darker", "Leonard Cohen", "You Want It Darker").
performer("Leonard Cohen", "5zb7npjQqoJ7Kcpq4yD9qn").
song("1wt6jWpqlVwx6bqr9guw6b", 99, 30, 67, 50, 59, 6, 11, 3, "For a Minute There", "Darrell McCall", "Country from the Heart").
performer("Darrell McCall", "1wt6jWpqlVwx6bqr9guw6b").
song("3uW4BXrHwSjDRZW6YKSWzL", 75, 23, 61, 65, 56, 3, 17, 3, "Atlantic City - Soundtrack Version", "Randy Newman", "Ragtime").
performer("Randy Newman", "3uW4BXrHwSjDRZW6YKSWzL").
song("6zC0mpGYwbNTpk9SKwh08f", 96, 21, 48, 57, 65, 13, 12, 3, "Wonderful Tonight", "Eric Clapton", "Slowhand 35th Anniversary (Super Deluxe)").
performer("Eric Clapton", "6zC0mpGYwbNTpk9SKwh08f").
song("59U7UlUXfznwJlwmVs3nVQ", 117, 29, 50, 60, 73, 2, 37, 4, "Tango merellä", "Taisto Tammi", "Taisto Tammen tangoja").
performer("Taisto Tammi", "59U7UlUXfznwJlwmVs3nVQ").
song("2GyutMSbA2SXaILOj4sI4x", 78, 32, 45, 56, 70, 4, 18, 4, "眼淚為你流", "Danny Chan", "巨星之初-陳百強").
performer("Danny Chan", "2GyutMSbA2SXaILOj4sI4x").
song("4trEYmH1XLvRC6XNkPpOMK", 92, 31, 39, 31, 60, 2, 12, 6, "Dadaloğlu", "Cem Karaca", "Ölümsüzler, Vol. 3").
performer("Cem Karaca", "4trEYmH1XLvRC6XNkPpOMK").
song("0efW8tfNf5xyjaXbIEhvxY", 117, 22, 62, 56, 80, 3, 6, 5, "De Floreo", "Orquesta Color Tango De Roberto Alvarez", "Tango a Pugliese Con estilo para bailar Vol. 3").
performer("Orquesta Color Tango De Roberto Alvarez", "0efW8tfNf5xyjaXbIEhvxY").
song("3kYLpeRglpJLQkCsbp7p4j", 94, 32, 70, 65, 79, 6, 13, 4, "I 'll Play the Blues for You", "Melvin Taylor;Lucky Peterson;Titus Williams;Ray \"Killer\" Allison", "Plays the Blues for You (feat. Lucky Peterson, Titus Williams, Ray \"Killer\" Allison) [Blues Power]").
performer("Melvin Taylor", "3kYLpeRglpJLQkCsbp7p4j").
performer("Lucky Peterson", "3kYLpeRglpJLQkCsbp7p4j").
performer("Titus Williams", "3kYLpeRglpJLQkCsbp7p4j").
performer("Ray \"Killer\" Allison", "3kYLpeRglpJLQkCsbp7p4j").
song("34OMCMFNcDM3sxz5xghISu", 92, 27, 47, 56, 87, 22, 29, 3, "It's Raining All over the World", "Lefty Frizzell", "The Complete Columbia Recording Sessions, Vol. 9 - 1968-1972").
performer("Lefty Frizzell", "34OMCMFNcDM3sxz5xghISu").
song("0md3dDLRwrsgBQ59CfgmXO", 89, 30, 45, 41, 86, 21, 13, 3, "She's Got to Be a Saint", "Ray Price", "Ray Price - 16 Biggest Hits").
performer("Ray Price", "0md3dDLRwrsgBQ59CfgmXO").
song("5vEopnR9F4viOgBg0agaOD", 99, 27, 42, 58, 78, 24, 10, 4, "¿Cómo Fue?", "Beny Moré", "RCA 100 Años De Musica").
performer("Beny Moré", "5vEopnR9F4viOgBg0agaOD").
song("6k9i1ZHcGUF2tTY1gvpBp8", 102, 27, 56, 55, 77, 46, 13, 3, "Night Spot", "Scott Hamilton;Hans Backenroth;Kristian Leth;Jan Lundgren", "Fraser Macpherson from the Pen Of").
performer("Scott Hamilton", "6k9i1ZHcGUF2tTY1gvpBp8").
performer("Hans Backenroth", "6k9i1ZHcGUF2tTY1gvpBp8").
performer("Kristian Leth", "6k9i1ZHcGUF2tTY1gvpBp8").
performer("Jan Lundgren", "6k9i1ZHcGUF2tTY1gvpBp8").
song("0REaKwAIIrYw7ahWlSwtro", 117, 14, 42, 61, 80, 5, 10, 5, "Wenn ich erst groß bin - Instrumental", "Kristen Anderson-Lopez;Robert Lopez", "Die Eiskönigin 2 (Deutscher Original Film-Soundtrack/Deluxe Edition)").
performer("Kristen Anderson-Lopez", "0REaKwAIIrYw7ahWlSwtro").
performer("Robert Lopez", "0REaKwAIIrYw7ahWlSwtro").
song("6TgA7gRbih1UvQGRWWBsdS", 94, 25, 55, 67, 55, 2, 11, 3, "Shot Full Of Love", "Don Williams", "Country Classics").
performer("Don Williams", "6TgA7gRbih1UvQGRWWBsdS").
song("6QAJbtf8Qb69AKsp8soPmN", 84, 18, 54, 37, 66, 36, 21, 3, "Don't You Ever Get Tired of Hurting Me", "Ray Price", "The Other Woman").
performer("Ray Price", "6QAJbtf8Qb69AKsp8soPmN").
song("3yJVVfQMLKNwHPaO5iHppk", 111, 28, 48, 66, 72, 38, 11, 3, "IllLeaveItUpToYou", "surrenderdorothy", "ItsTheLeastWeCanDo").
performer("surrenderdorothy", "3yJVVfQMLKNwHPaO5iHppk").
song("33jIOBC0DaJNGzyLQxD41f", 115, 30, 41, 64, 66, 20, 10, 4, "散步之年", "my little airport", "SABINA之淚").
performer("my little airport", "33jIOBC0DaJNGzyLQxD41f").

target_valence(57).
target_energy(18).
target_tempo(93).

artist_gap(0).
artist_target_count(1).
required_artist("The Beatles").
banned_track("Le tango dysfonctionnel").
banned_track("A Good Year For The Roses").
banned_track("Komma").
banned_track("ハイキング").
banned_track("CoComelon Theme Tune").
banned_track("Blackbird - Remastered 2009").
banned_track("Knitted Hat - Music Box").
banned_track("O Leyli").
banned_track("Tum Chhupa Na Sakogi").
banned_track("T-Bone Blues").
banned_track("Magnolia").
artist_match("The Beatles", "3mlMpmY8oZIBFc39D9zLbh").